NAME: random_40_3
TYPE: TSP
COMMENT: random_40_3
DIMENSION: 40
EDGE_WEIGHT_TYPE: EUC_2D
NODE_COORD_SECTION
1 294 419
2 344 95
3 228 69
4 360 174
5 464 291
6 246 180
7 130 399
8 324 313
9 312 219
10 327 316
11 453 436
12 455 246
13 419 412
14 62 9
15 369 325
16 441 357
17 316 294
18 291 324
19 282 63
20 84 235
21 375 290
22 210 347
23 12 484
24 101 408
25 436 25
26 21 80
27 470 485
28 426 355
29 213 53
30 338 104
31 433 152
32 276 259
33 321 475
34 5 356
35 473 129
36 78 348
37 420 425
38 88 497
39 157 230
40 456 70
